c Circuit-CNF generated by TG-PRO v1.0 (c) Huan Chen and Joao Marques-Silva
p cnf 328 860
1 2 0
-1 -2 0
3 4 0
-3 -4 0
5 6 0
-5 -6 0
7 8 0
-7 -8 0
9 10 0
-9 -10 0
11 12 0
-11 -12 0
-13 -14 0
-13 -15 0
13 14 15 0
-16 -17 0
-16 -15 0
16 17 15 0
18 19 0
18 20 0
-18 -19 -20 0
21 22 0
21 23 0
-21 -22 -23 0
-24 -25 0
-24 -15 0
24 25 15 0
-26 -27 0
-26 -28 0
26 27 28 0
-29 -30 0
-29 -31 0
29 30 31 0
-32 -33 0
-32 -34 0
32 33 34 0
-35 -36 0
-35 -37 0
35 36 37 0
-38 -39 0
-38 -40 0
38 39 40 0
-41 -42 0
-41 -43 0
41 42 43 0
44 45 0
44 46 0
-44 -45 -46 0
-47 -48 0
-47 -15 0
47 48 15 0
-49 -50 0
-49 -51 0
49 50 51 0
-52 -53 0
-52 -54 0
52 53 54 0
-55 -56 0
-55 -57 0
55 56 57 0
-58 -59 0
-58 -60 0
58 59 60 0
-61 -62 0
-61 -63 0
61 62 63 0
-64 -65 0
-64 -66 0
64 65 66 0
-67 -68 0
-67 -15 0
67 68 15 0
-69 -70 0
-69 -15 0
69 70 15 0
15 71 0
-15 -71 0
72 15 0
-72 -15 0
73 74 0
-73 -74 0
75 76 0
-75 -76 0
77 14 0
-77 -14 0
78 79 0
-78 -79 0
80 81 0
-80 -81 0
82 83 0
-82 -83 0
84 85 0
-84 -85 0
86 87 0
-86 -87 0
88 89 0
-88 -89 0
90 91 0
-90 -91 0
92 93 0
-92 -93 0
94 95 0
-94 -95 0
43 72 0
-43 -72 0
96 97 0
-96 -97 0
98 95 0
-98 -95 0
99 74 0
-99 -74 0
100 97 0
-100 -97 0
101 102 0
-101 -102 0
103 104 0
-103 -104 0
6 105 0
-6 -105 0
12 106 0
-12 -106 0
107 85 0
-107 -85 0
108 95 0
-108 -95 0
109 105 0
-109 -105 0
110 97 0
-110 -97 0
111 106 0
-111 -106 0
112 76 0
-112 -76 0
113 114 0
-113 -114 0
115 74 0
-115 -74 0
-51 -116 0
-51 -117 0
51 116 117 0
118 51 0
-118 -51 0
119 120 0
-119 -120 0
2 114 0
-2 -114 0
8 121 0
-8 -121 0
122 123 0
-122 -123 0
124 122 0
-124 -122 0
125 102 0
-125 -102 0
123 126 0
-123 -126 0
127 128 0
-127 -128 0
129 127 0
-129 -127 0
130 93 0
-130 -93 0
71 131 0
-71 -131 0
128 132 0
-128 -132 0
4 133 0
-4 -133 0
10 120 0
-10 -120 0
134 135 0
134 14 0
-134 -135 -14 0
-136 92 0
-136 134 0
136 -92 -134 0
-137 138 0
-137 79 0
137 -138 -79 0
-139 92 0
-139 134 0
139 -92 -134 0
-140 92 0
-140 134 0
140 -92 -134 0
-141 73 0
-141 97 0
141 -73 -97 0
-142 74 0
-142 96 0
142 -74 -96 0
-143 72 0
-143 82 0
143 -72 -82 0
-144 92 0
-144 72 0
144 -92 -72 0
-145 90 0
-145 88 0
145 -90 -88 0
-146 90 0
-146 85 0
146 -90 -85 0
-147 148 0
-147 91 0
147 -148 -91 0
-149 72 0
-149 85 0
149 -72 -85 0
-150 91 0
-150 84 0
150 -91 -84 0
-151 90 0
-151 85 0
151 -90 -85 0
-152 91 0
-152 88 0
152 -91 -88 0
-153 154 0
-153 85 0
153 -154 -85 0
-155 72 0
-155 89 0
155 -72 -89 0
-156 157 0
-156 79 0
156 -157 -79 0
-158 14 0
-158 87 0
158 -14 -87 0
-159 77 0
-159 86 0
159 -77 -86 0
-160 161 0
-160 81 0
160 -161 -81 0
-162 77 0
-162 80 0
162 -77 -80 0
-163 86 0
-163 80 0
163 -86 -80 0
164 165 0
164 14 0
-164 -165 -14 0
-27 78 0
-27 164 0
27 -78 -164 0
-166 -82 0
-166 -78 0
166 82 78 0
-167 168 0
-167 166 0
167 -168 -166 0
-169 170 0
-169 134 0
169 -170 -134 0
-171 -172 0
-171 -81 0
171 172 81 0
-173 -145 0
-173 -146 0
173 145 146 0
-174 175 0
-174 173 0
174 -175 -173 0
-176 177 0
-176 134 0
176 -177 -134 0
178 179 0
178 92 0
-178 -179 -92 0
-180 181 0
-180 178 0
180 -181 -178 0
-182 183 0
-182 134 0
182 -183 -134 0
-184 -185 0
-184 -152 0
184 185 152 0
-186 187 0
-186 184 0
186 -187 -184 0
-188 189 0
-188 134 0
188 -189 -134 0
-190 191 0
-190 184 0
190 -191 -184 0
-192 -193 0
-192 -85 0
192 193 85 0
-194 195 0
-194 178 0
194 -195 -178 0
-196 197 0
-196 134 0
196 -197 -134 0
198 199 0
198 83 0
-198 -199 -83 0
-200 94 0
-200 198 0
200 -94 -198 0
-201 -76 0
-201 -99 0
201 76 99 0
-202 203 0
-202 201 0
202 -203 -201 0
204 205 0
204 201 0
-204 -205 -201 0
-206 103 0
-206 204 0
206 -103 -204 0
-116 207 0
-116 201 0
116 -207 -201 0
-117 103 0
-117 204 0
117 -103 -204 0
-208 209 0
-208 121 0
208 -209 -121 0
-210 211 0
-210 76 0
210 -211 -76 0
-212 76 0
-212 109 0
212 -76 -109 0
-213 115 0
-213 112 0
213 -115 -112 0
-214 110 0
-214 115 0
214 -110 -115 0
-215 111 0
-215 74 0
215 -111 -74 0
-216 112 0
-216 74 0
216 -112 -74 0
-56 217 0
-56 97 0
56 -217 -97 0
-218 -208 0
-218 -210 0
218 208 210 0
-59 219 0
-59 218 0
59 -219 -218 0
220 221 0
220 76 0
-220 -221 -76 0
-62 118 0
-62 220 0
62 -118 -220 0
-63 85 0
-63 51 0
63 -85 -51 0
-65 119 0
-65 76 0
65 -119 -76 0
-222 124 0
-222 125 0
222 -124 -125 0
-223 122 0
-223 102 0
223 -122 -102 0
-224 129 0
-224 130 0
224 -129 -130 0
-225 127 0
-225 93 0
225 -127 -93 0
-226 -227 0
-226 -77 0
226 227 77 0
228 -93 0
228 -226 0
-228 93 226 0
229 -75 0
229 -74 0
-229 75 74 0
230 -231 0
230 -78 0
-230 231 78 0
232 -233 0
232 -81 0
-232 233 81 0
234 -235 0
234 -88 0
-234 235 88 0
236 -237 0
236 -90 0
-236 237 90 0
238 -83 0
238 -91 0
-238 83 91 0
179 -239 0
179 -78 0
-179 239 78 0
240 241 0
240 83 0
-240 -241 -83 0
242 243 0
242 89 0
-242 -243 -89 0
-244 -137 0
-244 -93 0
244 137 93 0
19 -245 0
19 -244 0
-19 245 244 0
-246 -247 0
-246 -198 0
246 247 198 0
20 -248 0
20 -246 0
-20 248 246 0
249 250 0
249 95 0
-249 -250 -95 0
22 -251 0
22 -244 0
-22 251 244 0
-252 -253 0
-252 -254 0
252 253 254 0
23 -255 0
23 -252 0
-23 255 252 0
256 90 0
256 83 0
-256 -90 -83 0
257 258 0
257 84 0
-257 -258 -84 0
259 228 0
259 229 0
-259 -228 -229 0
45 -260 0
45 -259 0
-45 260 259 0
-261 -262 0
-261 -198 0
261 262 198 0
46 -263 0
46 -261 0
-46 263 261 0
264 -265 0
264 -112 0
-264 265 112 0
266 -115 0
266 -114 0
-266 115 114 0
267 -115 0
267 -76 0
-267 115 76 0
268 -269 0
268 -74 0
-268 269 74 0
270 -110 0
270 -133 0
-270 110 133 0
271 -115 0
271 -133 0
-271 115 133 0
272 -273 0
272 -121 0
-272 273 121 0
274 -118 0
274 -107 0
-274 118 107 0
275 -115 0
275 -76 0
-275 115 76 0
276 -95 0
276 -76 0
-276 95 76 0
277 -97 0
277 -74 0
-277 97 74 0
278 -279 0
278 -112 0
-278 279 112 0
280 -281 0
280 -76 0
-280 281 76 0
282 -283 0
282 -106 0
-282 283 106 0
-284 -94 0
-284 -88 0
284 94 88 0
254 285 0
254 284 0
-254 -285 -284 0
28 286 0
28 72 0
-28 -286 -72 0
34 287 0
34 72 0
-34 -287 -72 0
54 288 0
54 118 0
-54 -288 -118 0
57 289 0
57 118 0
-57 -289 -118 0
60 272 0
60 274 0
-60 -272 -274 0
66 290 0
66 118 0
-66 -290 -118 0
-31 -143 0
-31 -144 0
31 143 144 0
-37 -147 0
-37 -149 0
37 147 149 0
-40 -153 0
-40 -155 0
40 153 155 0
291 -156 0
291 -158 0
-291 156 158 0
17 -291 0
17 -159 0
-17 291 159 0
292 -160 0
292 -162 0
-292 160 162 0
25 -292 0
25 -163 0
-25 292 163 0
30 -167 0
30 -169 0
-30 167 169 0
33 -174 0
33 -176 0
-33 174 176 0
36 -180 0
36 -182 0
-36 180 182 0
293 -186 0
293 -188 0
-293 186 188 0
39 -293 0
39 -190 0
-39 293 190 0
294 -194 0
294 -196 0
-294 194 196 0
42 -294 0
42 -200 0
-42 294 200 0
48 -202 0
48 -206 0
-48 202 206 0
295 -212 0
295 -213 0
-295 212 213 0
50 -295 0
50 -214 0
-50 295 214 0
53 -215 0
53 -216 0
-53 215 216 0
68 -222 0
68 -223 0
-68 222 223 0
70 -224 0
70 -225 0
-70 224 225 0
-296 79 0
-296 80 0
296 -79 -80 0
-135 296 0
-135 86 0
135 -296 -86 0
-297 14 0
-297 86 0
297 -14 -86 0
-138 297 0
-138 80 0
138 -297 -80 0
-148 72 0
-148 83 0
148 -72 -83 0
-298 72 0
-298 83 0
298 -72 -83 0
-154 298 0
-154 91 0
154 -298 -91 0
-157 14 0
-157 80 0
157 -14 -80 0
-161 14 0
-161 87 0
161 -14 -87 0
-165 81 0
-165 87 0
165 -81 -87 0
-299 80 0
-299 86 0
299 -80 -86 0
-168 299 0
-168 14 0
168 -299 -14 0
-170 82 0
-170 92 0
170 -82 -92 0
172 -82 0
172 -78 0
-172 82 78 0
-300 86 0
-300 14 0
300 -86 -14 0
-175 300 0
-175 171 0
175 -300 -171 0
-177 90 0
-177 92 0
177 -90 -92 0
-301 85 0
-301 91 0
301 -85 -91 0
-181 301 0
-181 83 0
181 -301 -83 0
-183 84 0
-183 92 0
183 -84 -92 0
185 -150 0
185 -151 0
-185 150 151 0
-302 86 0
-302 14 0
302 -86 -14 0
-187 302 0
-187 171 0
187 -302 -171 0
-189 88 0
-189 92 0
189 -88 -92 0
-191 83 0
-191 93 0
191 -83 -93 0
193 -94 0
193 -88 0
-193 94 88 0
-303 90 0
-303 83 0
303 -90 -83 0
-195 303 0
-195 192 0
195 -303 -192 0
-197 94 0
-197 92 0
197 -94 -92 0
-304 89 0
-304 84 0
304 -89 -84 0
-199 304 0
-199 90 0
199 -304 -90 0
-305 100 0
-305 95 0
305 -100 -95 0
-203 305 0
-203 101 0
203 -305 -101 0
-306 100 0
-306 98 0
306 -100 -98 0
-205 306 0
-205 102 0
205 -306 -102 0
-307 100 0
-307 95 0
307 -100 -95 0
-207 307 0
-207 101 0
207 -307 -101 0
-209 97 0
-209 76 0
209 -97 -76 0
-211 108 0
-211 110 0
211 -108 -110 0
-217 113 0
-217 76 0
217 -113 -76 0
-219 115 0
-219 118 0
219 -115 -118 0
-308 268 0
-308 270 0
308 -268 -270 0
-221 308 0
-221 271 0
221 -308 -271 0
309 -78 0
309 -81 0
-309 78 81 0
227 -309 0
227 -87 0
-227 309 87 0
310 -77 0
310 -86 0
-310 77 86 0
231 -310 0
231 -80 0
-231 310 80 0
233 -77 0
233 -87 0
-233 77 87 0
311 -92 0
311 -82 0
-311 92 82 0
235 -311 0
235 -85 0
-235 311 85 0
237 -92 0
237 -82 0
-237 92 82 0
312 -77 0
312 -87 0
-312 77 87 0
239 -312 0
239 -81 0
-239 312 81 0
-241 84 0
-241 90 0
241 -84 -90 0
-313 73 0
-313 97 0
313 -73 -97 0
-243 313 0
-243 95 0
243 -313 -95 0
314 -15 0
314 -240 0
-314 15 240 0
245 -314 0
245 -242 0
-245 314 242 0
315 -139 0
315 -96 0
-315 139 96 0
247 -315 0
247 -94 0
-247 315 94 0
248 -73 0
248 -15 0
-248 73 15 0
-316 75 0
-316 74 0
316 -75 -74 0
-250 316 0
-250 97 0
250 -316 -97 0
317 -15 0
317 -198 0
-317 15 198 0
251 -317 0
251 -249 0
-251 317 249 0
318 -140 0
318 -141 0
-318 140 141 0
253 -318 0
253 -142 0
-253 318 142 0
255 -75 0
255 -15 0
-255 75 15 0
-319 96 0
-319 95 0
319 -96 -95 0
-258 319 0
-258 89 0
258 -319 -89 0
320 -15 0
320 -256 0
-320 15 256 0
260 -320 0
260 -257 0
-260 320 257 0
262 -136 0
262 -94 0
-262 136 94 0
263 -96 0
263 -15 0
-263 96 15 0
321 -95 0
321 -97 0
-321 95 97 0
265 -321 0
265 -74 0
-265 321 74 0
269 -108 0
269 -97 0
-269 108 97 0
322 -51 0
322 -115 0
-322 51 115 0
273 -322 0
273 -112 0
-273 322 112 0
323 -95 0
323 -97 0
-323 95 97 0
279 -323 0
279 -74 0
-279 323 74 0
281 -108 0
281 -110 0
-281 108 110 0
283 -110 0
283 -112 0
-283 110 112 0
-324 84 0
-324 90 0
324 -84 -90 0
-285 324 0
-285 83 0
285 -324 -83 0
-286 230 0
-286 232 0
286 -230 -232 0
-325 234 0
-325 236 0
325 -234 -236 0
-287 325 0
-287 238 0
287 -325 -238 0
-326 278 0
-326 280 0
326 -278 -280 0
-288 326 0
-288 282 0
288 -326 -282 0
-327 264 0
-327 266 0
327 -264 -266 0
-289 327 0
-289 267 0
289 -327 -267 0
-328 275 0
-328 276 0
328 -275 -276 0
-290 328 0
-290 277 0
290 -328 -277 0
